NAME : pr1002
TYPE : OP
DIMENSION : 1002
COST_LIMIT : 129523
ROUTE_NODES : 549
ROUTE_SCORE : 38762
ROUTE_COST : 129497
NODE_SEQUENCE_SECTION
1
75
77
90
92
91
108
112
113
304
303
302
301
283
299
286
287
288
403
407
406
416
414
415
417
418
419
420
421
422
426
425
424
462
461
428
429
430
431
432
433
434
446
447
445
444
443
442
440
438
439
441
632
631
630
629
611
610
608
607
606
605
609
612
627
628
626
625
992
633
634
635
636
637
638
639
640
373
372
371
370
369
378
368
367
366
365
364
363
362
361
390
392
391
340
339
341
344
345
350
351
352
353
359
358
357
355
356
660
661
662
656
655
657
658
659
654
652
653
643
644
647
646
645
648
651
650
649
622
621
623
624
617
618
619
620
727
729
728
725
724
723
712
711
713
714
715
721
717
716
696
695
694
693
692
691
690
689
688
718
720
719
673
674
675
677
678
679
680
681
682
687
686
685
683
684
988
989
990
984
983
985
986
987
970
971
972
981
982
980
975
974
973
976
979
978
977
950
949
951
952
948
947
946
945
944
943
942
941
940
955
956
954
953
993
961
962
963
964
965
966
967
968
701
700
699
702
703
704
705
698
697
706
707
709
708
737
736
735
734
738
744
742
743
745
733
749
750
748
746
747
755
754
753
752
751
792
791
790
789
756
757
758
759
760
761
762
774
775
773
772
771
770
768
766
767
769
960
959
958
957
939
938
937
936
935
934
933
932
931
930
929
928
927
925
924
923
922
921
920
919
887
888
886
885
884
883
882
881
880
879
878
877
890
889
891
892
893
847
874
875
876
870
871
872
869
868
873
867
865
864
863
861
862
856
855
854
857
858
852
851
843
844
845
849
848
846
895
894
896
897
898
899
900
901
902
918
917
916
904
903
906
905
909
910
911
912
913
777
776
778
779
780
781
783
784
785
786
787
801
802
803
804
800
799
805
806
807
808
809
810
811
821
822
820
812
813
814
815
841
840
839
838
837
836
835
834
833
831
830
829
826
827
828
817
816
818
819
823
824
825
555
554
553
552
551
550
549
562
561
563
564
565
518
519
546
547
548
542
543
544
545
540
539
537
536
535
533
534
528
527
526
529
525
522
521
520
517
516
567
566
568
569
570
571
572
573
574
591
592
559
560
558
556
557
593
594
595
596
597
590
589
575
576
577
578
580
998
481
482
483
484
492
491
490
486
487
513
512
511
510
509
508
507
506
505
503
502
501
498
214
215
216
212
217
218
191
190
192
193
189
239
238
237
236
235
234
221
222
223
224
225
226
227
228
229
265
266
267
268
269
261
248
247
250
249
253
254
255
-1
DEPOT_SECTION
1
-1
EOF
